modules/mergetreemaps/data/miniZinc/leftrightdecision.fzn
array [1..2] of int: X_INTRODUCED_124_ = [1,-1];
array [1..9] of float: X_INTRODUCED_322_ = [-1.0,-1.0,-1.0,-1.0,-1.0,-1.0,-1.0,-1.0,-1.0];
array [1..10] of float: X_INTRODUCED_326_ = [1.0,-1.0,-1.0,-1.0,-1.0,-1.0,-1.0,-1.0,-1.0,-1.0];
array [1..9] of float: X_INTRODUCED_328_ = [1.0,1.0,1.0,1.0,1.0,1.0,1.0,1.0,1.0];
var 0..4096: X_INTRODUCED_0_;
var 0..4096: X_INTRODUCED_1_;
var 0..4096: X_INTRODUCED_2_;
var 0..4096: X_INTRODUCED_3_;
var 0..4096: X_INTRODUCED_4_;
var 0..4096: X_INTRODUCED_5_;
var 0..4096: X_INTRODUCED_6_;
var 0..4096: X_INTRODUCED_7_;
var bool: X_INTRODUCED_14_;
var 0..4096: X_INTRODUCED_15_;
var 0..4096: X_INTRODUCED_16_;
var 0..4096: X_INTRODUCED_17_;
var 0..4096: X_INTRODUCED_18_;
var 0..4096: X_INTRODUCED_19_;
var 0..4096: X_INTRODUCED_20_;
var 0..4096: X_INTRODUCED_21_;
var 0..4096: X_INTRODUCED_22_;
var bool: X_INTRODUCED_29_;
var 0..4096: X_INTRODUCED_30_;
var 0..4096: X_INTRODUCED_31_;
var 0..4096: X_INTRODUCED_32_;
var 0..4096: X_INTRODUCED_33_;
var 0..4096: X_INTRODUCED_34_;
var 0..4096: X_INTRODUCED_35_;
var 0..4096: X_INTRODUCED_36_;
var 0..4096: X_INTRODUCED_37_;
var bool: X_INTRODUCED_44_;
var 0..4096: X_INTRODUCED_48_ ::var_is_introduced :: is_defined_var;
var 0..4096: X_INTRODUCED_49_ ::var_is_introduced :: is_defined_var;
var -4095..4097: X_INTRODUCED_50_ ::var_is_introduced :: is_defined_var;
var 0..4096: X_INTRODUCED_51_ ::var_is_introduced :: is_defined_var;
var 0..4096: X_INTRODUCED_52_ ::var_is_introduced :: is_defined_var;
var 0..4096: X_INTRODUCED_53_ ::var_is_introduced :: is_defined_var;
var -4095..4097: X_INTRODUCED_54_ ::var_is_introduced :: is_defined_var;
var 0..4096: X_INTRODUCED_55_ ::var_is_introduced :: is_defined_var;
var 0..4096: X_INTRODUCED_56_ ::var_is_introduced :: is_defined_var;
var 0..4096: X_INTRODUCED_57_ ::var_is_introduced :: is_defined_var;
var -4095..4097: X_INTRODUCED_58_ ::var_is_introduced :: is_defined_var;
var 0..4096: X_INTRODUCED_59_ ::var_is_introduced :: is_defined_var;
var 0..4096: X_INTRODUCED_60_ ::var_is_introduced :: is_defined_var;
var 0..4096: X_INTRODUCED_61_ ::var_is_introduced :: is_defined_var;
var -4095..4097: X_INTRODUCED_62_ ::var_is_introduced :: is_defined_var;
var 0..4096: X_INTRODUCED_63_ ::var_is_introduced :: is_defined_var;
var 0..4096: X_INTRODUCED_64_ ::var_is_introduced :: is_defined_var;
var 0..4096: X_INTRODUCED_65_ ::var_is_introduced :: is_defined_var;
var -4095..4097: X_INTRODUCED_66_ ::var_is_introduced :: is_defined_var;
var 0..4096: X_INTRODUCED_67_ ::var_is_introduced :: is_defined_var;
var 0..4096: X_INTRODUCED_68_ ::var_is_introduced :: is_defined_var;
var 0..4096: X_INTRODUCED_69_ ::var_is_introduced :: is_defined_var;
var -4095..4097: X_INTRODUCED_70_ ::var_is_introduced :: is_defined_var;
var 0..4096: X_INTRODUCED_71_ ::var_is_introduced :: is_defined_var;
var 0..4096: X_INTRODUCED_72_ ::var_is_introduced :: is_defined_var;
var 0..4096: X_INTRODUCED_73_ ::var_is_introduced :: is_defined_var;
var -4095..4097: X_INTRODUCED_74_ ::var_is_introduced :: is_defined_var;
var 0..4096: X_INTRODUCED_75_ ::var_is_introduced :: is_defined_var;
var 0..4096: X_INTRODUCED_76_ ::var_is_introduced :: is_defined_var;
var 0..4096: X_INTRODUCED_77_ ::var_is_introduced :: is_defined_var;
var -4095..4097: X_INTRODUCED_78_ ::var_is_introduced :: is_defined_var;
var 0..4096: X_INTRODUCED_79_ ::var_is_introduced :: is_defined_var;
var 0..4096: X_INTRODUCED_80_ ::var_is_introduced :: is_defined_var;
var 0..4096: X_INTRODUCED_81_ ::var_is_introduced :: is_defined_var;
var -4095..4097: X_INTRODUCED_82_ ::var_is_introduced :: is_defined_var;
var 0..4096: X_INTRODUCED_83_ ::var_is_introduced :: is_defined_var;
var 0..4096: X_INTRODUCED_84_ ::var_is_introduced :: is_defined_var;
var 0..4096: X_INTRODUCED_85_ ::var_is_introduced :: is_defined_var;
var -4095..4097: X_INTRODUCED_86_ ::var_is_introduced :: is_defined_var;
var 0..4096: X_INTRODUCED_87_ ::var_is_introduced :: is_defined_var;
var 0..4096: X_INTRODUCED_88_ ::var_is_introduced :: is_defined_var;
var 0..4096: X_INTRODUCED_89_ ::var_is_introduced :: is_defined_var;
var -4095..4097: X_INTRODUCED_90_ ::var_is_introduced :: is_defined_var;
var 0..4096: X_INTRODUCED_91_ ::var_is_introduced :: is_defined_var;
var 0..4096: X_INTRODUCED_92_ ::var_is_introduced :: is_defined_var;
var 0..4096: X_INTRODUCED_93_ ::var_is_introduced :: is_defined_var;
var -4095..4097: X_INTRODUCED_94_ ::var_is_introduced :: is_defined_var;
var 0..4096: X_INTRODUCED_95_ ::var_is_introduced :: is_defined_var;
var 0..4096: X_INTRODUCED_96_ ::var_is_introduced :: is_defined_var;
var 0..4096: X_INTRODUCED_97_ ::var_is_introduced :: is_defined_var;
var -4095..4097: X_INTRODUCED_98_ ::var_is_introduced :: is_defined_var;
var 0..4096: X_INTRODUCED_99_ ::var_is_introduced :: is_defined_var;
var 0..4096: X_INTRODUCED_100_ ::var_is_introduced :: is_defined_var;
var 0..4096: X_INTRODUCED_101_ ::var_is_introduced :: is_defined_var;
var -4095..4097: X_INTRODUCED_102_ ::var_is_introduced :: is_defined_var;
var 0..4096: X_INTRODUCED_103_ ::var_is_introduced :: is_defined_var;
var 0..4096: X_INTRODUCED_104_ ::var_is_introduced :: is_defined_var;
var 0..4096: X_INTRODUCED_105_ ::var_is_introduced :: is_defined_var;
var -4095..4097: X_INTRODUCED_106_ ::var_is_introduced :: is_defined_var;
var 0..4096: X_INTRODUCED_107_ ::var_is_introduced :: is_defined_var;
var 0..4096: X_INTRODUCED_108_ ::var_is_introduced :: is_defined_var;
var 0..4096: X_INTRODUCED_109_ ::var_is_introduced :: is_defined_var;
var -4095..4097: X_INTRODUCED_110_ ::var_is_introduced :: is_defined_var;
var 0..4096: X_INTRODUCED_111_ ::var_is_introduced :: is_defined_var;
var 0..4096: X_INTRODUCED_112_ ::var_is_introduced :: is_defined_var;
var 0..4096: X_INTRODUCED_113_ ::var_is_introduced :: is_defined_var;
var -4095..4097: X_INTRODUCED_114_ ::var_is_introduced :: is_defined_var;
var 0..4096: X_INTRODUCED_115_ ::var_is_introduced :: is_defined_var;
var 0..4096: X_INTRODUCED_116_ ::var_is_introduced :: is_defined_var;
var 0..4096: X_INTRODUCED_117_ ::var_is_introduced :: is_defined_var;
var -4095..4097: X_INTRODUCED_118_ ::var_is_introduced :: is_defined_var;
var 0..4096: X_INTRODUCED_119_ ::var_is_introduced :: is_defined_var;
var 0.0..8192.0: obj:: is_defined_var;
var bool: X_INTRODUCED_131_ ::var_is_introduced :: is_defined_var;
var bool: X_INTRODUCED_133_ ::var_is_introduced :: is_defined_var;
var bool: X_INTRODUCED_135_ ::var_is_introduced :: is_defined_var;
var bool: X_INTRODUCED_137_ ::var_is_introduced :: is_defined_var;
var bool: X_INTRODUCED_140_ ::var_is_introduced :: is_defined_var;
var bool: X_INTRODUCED_142_ ::var_is_introduced :: is_defined_var;
var bool: X_INTRODUCED_143_ ::var_is_introduced :: is_defined_var;
var bool: X_INTRODUCED_156_ ::var_is_introduced :: is_defined_var;
var bool: X_INTRODUCED_158_ ::var_is_introduced :: is_defined_var;
var bool: X_INTRODUCED_160_ ::var_is_introduced :: is_defined_var;
var bool: X_INTRODUCED_161_ ::var_is_introduced :: is_defined_var;
var bool: X_INTRODUCED_162_ ::var_is_introduced :: is_defined_var;
var bool: X_INTRODUCED_164_ ::var_is_introduced :: is_defined_var;
var bool: X_INTRODUCED_165_ ::var_is_introduced :: is_defined_var;
var bool: X_INTRODUCED_181_ ::var_is_introduced :: is_defined_var;
var bool: X_INTRODUCED_183_ ::var_is_introduced :: is_defined_var;
var bool: X_INTRODUCED_185_ ::var_is_introduced :: is_defined_var;
var bool: X_INTRODUCED_187_ ::var_is_introduced :: is_defined_var;
var bool: X_INTRODUCED_190_ ::var_is_introduced :: is_defined_var;
var bool: X_INTRODUCED_192_ ::var_is_introduced :: is_defined_var;
var bool: X_INTRODUCED_193_ ::var_is_introduced :: is_defined_var;
var bool: X_INTRODUCED_205_ ::var_is_introduced :: is_defined_var;
var bool: X_INTRODUCED_207_ ::var_is_introduced :: is_defined_var;
var bool: X_INTRODUCED_209_ ::var_is_introduced :: is_defined_var;
var bool: X_INTRODUCED_210_ ::var_is_introduced :: is_defined_var;
var bool: X_INTRODUCED_211_ ::var_is_introduced :: is_defined_var;
var bool: X_INTRODUCED_213_ ::var_is_introduced :: is_defined_var;
var bool: X_INTRODUCED_214_ ::var_is_introduced :: is_defined_var;
var bool: X_INTRODUCED_230_ ::var_is_introduced :: is_defined_var;
var bool: X_INTRODUCED_232_ ::var_is_introduced :: is_defined_var;
var bool: X_INTRODUCED_234_ ::var_is_introduced :: is_defined_var;
var bool: X_INTRODUCED_236_ ::var_is_introduced :: is_defined_var;
var bool: X_INTRODUCED_239_ ::var_is_introduced :: is_defined_var;
var bool: X_INTRODUCED_241_ ::var_is_introduced :: is_defined_var;
var bool: X_INTRODUCED_242_ ::var_is_introduced :: is_defined_var;
var bool: X_INTRODUCED_254_ ::var_is_introduced :: is_defined_var;
var bool: X_INTRODUCED_256_ ::var_is_introduced :: is_defined_var;
var bool: X_INTRODUCED_258_ ::var_is_introduced :: is_defined_var;
var bool: X_INTRODUCED_259_ ::var_is_introduced :: is_defined_var;
var bool: X_INTRODUCED_260_ ::var_is_introduced :: is_defined_var;
var bool: X_INTRODUCED_262_ ::var_is_introduced :: is_defined_var;
var bool: X_INTRODUCED_263_ ::var_is_introduced :: is_defined_var;
var 0.0..4096.0: X_INTRODUCED_278_ ::var_is_introduced :: is_defined_var;
var -0.93994140625..0.06005859375: X_INTRODUCED_279_ ::var_is_introduced :: is_defined_var;
var -0.05645155906677246..0.8834898471832275: X_INTRODUCED_280_ ::var_is_introduced :: is_defined_var;
var 0.0..4096.0: X_INTRODUCED_283_ ::var_is_introduced :: is_defined_var;
var -1.0..0.0: X_INTRODUCED_284_ ::var_is_introduced :: is_defined_var;
var -0.0..1.0: X_INTRODUCED_285_ ::var_is_introduced :: is_defined_var;
var 0.0..4096.0: X_INTRODUCED_288_ ::var_is_introduced :: is_defined_var;
var -0.93994140625..0.06005859375: X_INTRODUCED_289_ ::var_is_introduced :: is_defined_var;
var -0.05645155906677246..0.8834898471832275: X_INTRODUCED_290_ ::var_is_introduced :: is_defined_var;
var 0.0..4096.0: X_INTRODUCED_293_ ::var_is_introduced :: is_defined_var;
var -0.9990234375..0.0009765625: X_INTRODUCED_294_ ::var_is_introduced :: is_defined_var;
var -0.0009756088256835938..0.9980478286743164: X_INTRODUCED_295_ ::var_is_introduced :: is_defined_var;
var 0.0..4096.0: X_INTRODUCED_298_ ::var_is_introduced :: is_defined_var;
var -0.8525390625..0.1474609375: X_INTRODUCED_299_ ::var_is_introduced :: is_defined_var;
var -0.1257162094116211..0.7268228530883789: X_INTRODUCED_300_ ::var_is_introduced :: is_defined_var;
var 0.0..4096.0: X_INTRODUCED_303_ ::var_is_introduced :: is_defined_var;
var -0.7861328125..0.2138671875: X_INTRODUCED_304_ ::var_is_introduced :: is_defined_var;
var -0.1681280136108398..0.6180047988891602: X_INTRODUCED_305_ ::var_is_introduced :: is_defined_var;
var 0.0..4096.0: X_INTRODUCED_308_ ::var_is_introduced :: is_defined_var;
var -0.916015625..0.083984375: X_INTRODUCED_309_ ::var_is_introduced :: is_defined_var;
var -0.07693099975585938..0.8390846252441406: X_INTRODUCED_310_ ::var_is_introduced :: is_defined_var;
var 0.0..4096.0: X_INTRODUCED_313_ ::var_is_introduced :: is_defined_var;
var -0.8525390625..0.1474609375: X_INTRODUCED_314_ ::var_is_introduced :: is_defined_var;
var -0.1257162094116211..0.7268228530883789: X_INTRODUCED_315_ ::var_is_introduced :: is_defined_var;
var 0.0..4096.0: X_INTRODUCED_318_ ::var_is_introduced :: is_defined_var;
var 0.0..1.0: X_INTRODUCED_319_ ::var_is_introduced :: is_defined_var;
var 0.0..1.0: X_INTRODUCED_320_ ::var_is_introduced :: is_defined_var;
var 0.0..4096.0: X_INTRODUCED_323_ ::var_is_introduced ;
var float: X_INTRODUCED_324_ ::var_is_introduced ;
var bool: X_INTRODUCED_327_ ::var_is_introduced :: is_defined_var;
var bool: X_INTRODUCED_329_ ::var_is_introduced :: is_defined_var;
var 0.0..4096.0: X_INTRODUCED_333_ ::var_is_introduced :: is_defined_var;
var -1.0..0.0: X_INTRODUCED_334_ ::var_is_introduced :: is_defined_var;
var -0.0..1.0: X_INTRODUCED_335_ ::var_is_introduced :: is_defined_var;
var 0.0..4096.0: X_INTRODUCED_338_ ::var_is_introduced :: is_defined_var;
var -0.916259765625..0.083740234375: X_INTRODUCED_339_ ::var_is_introduced :: is_defined_var;
var -0.07672780752182007..0.8395319581031799: X_INTRODUCED_340_ ::var_is_introduced :: is_defined_var;
var 0.0..4096.0: X_INTRODUCED_343_ ::var_is_introduced :: is_defined_var;
var -0.916015625..0.083984375: X_INTRODUCED_344_ ::var_is_introduced :: is_defined_var;
var -0.07693099975585938..0.8390846252441406: X_INTRODUCED_345_ ::var_is_introduced :: is_defined_var;
var 0.0..4096.0: X_INTRODUCED_348_ ::var_is_introduced :: is_defined_var;
var -0.916015625..0.083984375: X_INTRODUCED_349_ ::var_is_introduced :: is_defined_var;
var -0.07693099975585938..0.8390846252441406: X_INTRODUCED_350_ ::var_is_introduced :: is_defined_var;
var 0.0..4096.0: X_INTRODUCED_353_ ::var_is_introduced :: is_defined_var;
var -0.9970703125..0.0029296875: X_INTRODUCED_354_ ::var_is_introduced :: is_defined_var;
var -0.002921104431152344..0.9941492080688477: X_INTRODUCED_355_ ::var_is_introduced :: is_defined_var;
var 0.0..4096.0: X_INTRODUCED_358_ ::var_is_introduced :: is_defined_var;
var -0.8525390625..0.1474609375: X_INTRODUCED_359_ ::var_is_introduced :: is_defined_var;
var -0.1257162094116211..0.7268228530883789: X_INTRODUCED_360_ ::var_is_introduced :: is_defined_var;
var 0.0..4096.0: X_INTRODUCED_363_ ::var_is_introduced :: is_defined_var;
var -0.915771484375..0.084228515625: X_INTRODUCED_364_ ::var_is_introduced :: is_defined_var;
var -0.07713407278060913..0.8386374115943909: X_INTRODUCED_365_ ::var_is_introduced :: is_defined_var;
var 0.0..4096.0: X_INTRODUCED_368_ ::var_is_introduced :: is_defined_var;
var -0.852783203125..0.147216796875: X_INTRODUCED_369_ ::var_is_introduced :: is_defined_var;
var -0.125544011592865..0.727239191532135: X_INTRODUCED_370_ ::var_is_introduced :: is_defined_var;
var 0.0..4096.0: X_INTRODUCED_373_ ::var_is_introduced :: is_defined_var;
var 0.0..1.0: X_INTRODUCED_374_ ::var_is_introduced :: is_defined_var;
var 0.0..1.0: X_INTRODUCED_375_ ::var_is_introduced :: is_defined_var;
var 0.0..4096.0: X_INTRODUCED_377_ ::var_is_introduced ;
var float: X_INTRODUCED_378_ ::var_is_introduced ;
var bool: X_INTRODUCED_380_ ::var_is_introduced :: is_defined_var;
var bool: X_INTRODUCED_381_ ::var_is_introduced :: is_defined_var;
array [1..12] of var int: limits_0:: output_array([1..3,1..4]) = [X_INTRODUCED_0_,X_INTRODUCED_1_,X_INTRODUCED_2_,X_INTRODUCED_3_,X_INTRODUCED_4_,X_INTRODUCED_5_,X_INTRODUCED_6_,X_INTRODUCED_7_,0,4095,1486,2609];
array [1..3] of var bool: decisions_0:: output_array([1..3]) = [true,true,X_INTRODUCED_14_];
array [1..12] of var int: limits_1:: output_array([1..3,1..4]) = [X_INTRODUCED_15_,X_INTRODUCED_16_,X_INTRODUCED_17_,X_INTRODUCED_18_,X_INTRODUCED_19_,X_INTRODUCED_20_,X_INTRODUCED_21_,X_INTRODUCED_22_,0,4095,1573,2522];
array [1..3] of var bool: decisions_1:: output_array([1..3]) = [true,true,X_INTRODUCED_29_];
array [1..12] of var int: limits_2:: output_array([1..3,1..4]) = [X_INTRODUCED_30_,X_INTRODUCED_31_,X_INTRODUCED_32_,X_INTRODUCED_33_,X_INTRODUCED_34_,X_INTRODUCED_35_,X_INTRODUCED_36_,X_INTRODUCED_37_,0,4095,1573,2522];
array [1..3] of var bool: decisions_2:: output_array([1..3]) = [true,true,X_INTRODUCED_44_];
array [1..2] of var float: objPerTimeStep:: output_array([1..2]) = [X_INTRODUCED_323_,X_INTRODUCED_377_];
constraint int_min(X_INTRODUCED_16_,X_INTRODUCED_1_,X_INTRODUCED_48_):: defines_var(X_INTRODUCED_48_);
constraint int_max(X_INTRODUCED_15_,X_INTRODUCED_0_,X_INTRODUCED_49_):: defines_var(X_INTRODUCED_49_);
constraint int_max(0,X_INTRODUCED_50_,X_INTRODUCED_51_):: defines_var(X_INTRODUCED_51_);
constraint int_min(X_INTRODUCED_16_,X_INTRODUCED_5_,X_INTRODUCED_52_):: defines_var(X_INTRODUCED_52_);
constraint int_max(X_INTRODUCED_15_,X_INTRODUCED_4_,X_INTRODUCED_53_):: defines_var(X_INTRODUCED_53_);
constraint int_max(0,X_INTRODUCED_54_,X_INTRODUCED_55_):: defines_var(X_INTRODUCED_55_);
constraint int_min(X_INTRODUCED_16_,4095,X_INTRODUCED_56_):: defines_var(X_INTRODUCED_56_);
constraint int_max(X_INTRODUCED_15_,0,X_INTRODUCED_57_):: defines_var(X_INTRODUCED_57_);
constraint int_max(0,X_INTRODUCED_58_,X_INTRODUCED_59_):: defines_var(X_INTRODUCED_59_);
constraint int_min(X_INTRODUCED_20_,X_INTRODUCED_1_,X_INTRODUCED_60_):: defines_var(X_INTRODUCED_60_);
constraint int_max(X_INTRODUCED_19_,X_INTRODUCED_0_,X_INTRODUCED_61_):: defines_var(X_INTRODUCED_61_);
constraint int_max(0,X_INTRODUCED_62_,X_INTRODUCED_63_):: defines_var(X_INTRODUCED_63_);
constraint int_min(X_INTRODUCED_20_,X_INTRODUCED_5_,X_INTRODUCED_64_):: defines_var(X_INTRODUCED_64_);
constraint int_max(X_INTRODUCED_19_,X_INTRODUCED_4_,X_INTRODUCED_65_):: defines_var(X_INTRODUCED_65_);
constraint int_max(0,X_INTRODUCED_66_,X_INTRODUCED_67_):: defines_var(X_INTRODUCED_67_);
constraint int_min(X_INTRODUCED_20_,4095,X_INTRODUCED_68_):: defines_var(X_INTRODUCED_68_);
constraint int_max(X_INTRODUCED_19_,0,X_INTRODUCED_69_):: defines_var(X_INTRODUCED_69_);
constraint int_max(0,X_INTRODUCED_70_,X_INTRODUCED_71_):: defines_var(X_INTRODUCED_71_);
constraint int_min(4095,X_INTRODUCED_1_,X_INTRODUCED_72_):: defines_var(X_INTRODUCED_72_);
constraint int_max(0,X_INTRODUCED_0_,X_INTRODUCED_73_):: defines_var(X_INTRODUCED_73_);
constraint int_max(0,X_INTRODUCED_74_,X_INTRODUCED_75_):: defines_var(X_INTRODUCED_75_);
constraint int_min(4095,X_INTRODUCED_5_,X_INTRODUCED_76_):: defines_var(X_INTRODUCED_76_);
constraint int_max(0,X_INTRODUCED_4_,X_INTRODUCED_77_):: defines_var(X_INTRODUCED_77_);
constraint int_max(0,X_INTRODUCED_78_,X_INTRODUCED_79_):: defines_var(X_INTRODUCED_79_);
constraint int_min(4095,4095,X_INTRODUCED_80_):: defines_var(X_INTRODUCED_80_);
constraint int_max(0,0,X_INTRODUCED_81_):: defines_var(X_INTRODUCED_81_);
constraint int_max(0,X_INTRODUCED_82_,X_INTRODUCED_83_):: defines_var(X_INTRODUCED_83_);
constraint int_min(X_INTRODUCED_31_,X_INTRODUCED_16_,X_INTRODUCED_84_):: defines_var(X_INTRODUCED_84_);
constraint int_max(X_INTRODUCED_30_,X_INTRODUCED_15_,X_INTRODUCED_85_):: defines_var(X_INTRODUCED_85_);
constraint int_max(0,X_INTRODUCED_86_,X_INTRODUCED_87_):: defines_var(X_INTRODUCED_87_);
constraint int_min(X_INTRODUCED_31_,X_INTRODUCED_20_,X_INTRODUCED_88_):: defines_var(X_INTRODUCED_88_);
constraint int_max(X_INTRODUCED_30_,X_INTRODUCED_19_,X_INTRODUCED_89_):: defines_var(X_INTRODUCED_89_);
constraint int_max(0,X_INTRODUCED_90_,X_INTRODUCED_91_):: defines_var(X_INTRODUCED_91_);
constraint int_min(X_INTRODUCED_31_,4095,X_INTRODUCED_92_):: defines_var(X_INTRODUCED_92_);
constraint int_max(X_INTRODUCED_30_,0,X_INTRODUCED_93_):: defines_var(X_INTRODUCED_93_);
constraint int_max(0,X_INTRODUCED_94_,X_INTRODUCED_95_):: defines_var(X_INTRODUCED_95_);
constraint int_min(X_INTRODUCED_35_,X_INTRODUCED_16_,X_INTRODUCED_96_):: defines_var(X_INTRODUCED_96_);
constraint int_max(X_INTRODUCED_34_,X_INTRODUCED_15_,X_INTRODUCED_97_):: defines_var(X_INTRODUCED_97_);
constraint int_max(0,X_INTRODUCED_98_,X_INTRODUCED_99_):: defines_var(X_INTRODUCED_99_);
constraint int_min(X_INTRODUCED_35_,X_INTRODUCED_20_,X_INTRODUCED_100_):: defines_var(X_INTRODUCED_100_);
constraint int_max(X_INTRODUCED_34_,X_INTRODUCED_19_,X_INTRODUCED_101_):: defines_var(X_INTRODUCED_101_);
constraint int_max(0,X_INTRODUCED_102_,X_INTRODUCED_103_):: defines_var(X_INTRODUCED_103_);
constraint int_min(X_INTRODUCED_35_,4095,X_INTRODUCED_104_):: defines_var(X_INTRODUCED_104_);
constraint int_max(X_INTRODUCED_34_,0,X_INTRODUCED_105_):: defines_var(X_INTRODUCED_105_);
constraint int_max(0,X_INTRODUCED_106_,X_INTRODUCED_107_):: defines_var(X_INTRODUCED_107_);
constraint int_min(4095,X_INTRODUCED_16_,X_INTRODUCED_108_):: defines_var(X_INTRODUCED_108_);
constraint int_max(0,X_INTRODUCED_15_,X_INTRODUCED_109_):: defines_var(X_INTRODUCED_109_);
constraint int_max(0,X_INTRODUCED_110_,X_INTRODUCED_111_):: defines_var(X_INTRODUCED_111_);
constraint int_min(4095,X_INTRODUCED_20_,X_INTRODUCED_112_):: defines_var(X_INTRODUCED_112_);
constraint int_max(0,X_INTRODUCED_19_,X_INTRODUCED_113_):: defines_var(X_INTRODUCED_113_);
constraint int_max(0,X_INTRODUCED_114_,X_INTRODUCED_115_):: defines_var(X_INTRODUCED_115_);
constraint int_min(4095,4095,X_INTRODUCED_116_):: defines_var(X_INTRODUCED_116_);
constraint int_max(0,0,X_INTRODUCED_117_):: defines_var(X_INTRODUCED_117_);
constraint int_max(0,X_INTRODUCED_118_,X_INTRODUCED_119_):: defines_var(X_INTRODUCED_119_);
constraint array_bool_or([X_INTRODUCED_14_,X_INTRODUCED_143_],true);
constraint array_bool_or([X_INTRODUCED_14_,X_INTRODUCED_162_],true);
constraint array_bool_or([X_INTRODUCED_29_,X_INTRODUCED_193_],true);
constraint array_bool_or([X_INTRODUCED_29_,X_INTRODUCED_211_],true);
constraint array_bool_or([X_INTRODUCED_44_,X_INTRODUCED_242_],true);
constraint array_bool_or([X_INTRODUCED_44_,X_INTRODUCED_260_],true);
constraint float_lin_le(X_INTRODUCED_322_,[X_INTRODUCED_280_,X_INTRODUCED_285_,X_INTRODUCED_290_,X_INTRODUCED_295_,X_INTRODUCED_300_,X_INTRODUCED_305_,X_INTRODUCED_310_,X_INTRODUCED_315_,X_INTRODUCED_320_],0.0);
constraint array_bool_or([X_INTRODUCED_327_,X_INTRODUCED_329_],true);
constraint float_sqrt(X_INTRODUCED_324_,X_INTRODUCED_323_);
constraint float_lin_le(X_INTRODUCED_322_,[X_INTRODUCED_335_,X_INTRODUCED_340_,X_INTRODUCED_345_,X_INTRODUCED_350_,X_INTRODUCED_355_,X_INTRODUCED_360_,X_INTRODUCED_365_,X_INTRODUCED_370_,X_INTRODUCED_375_],0.0);
constraint array_bool_or([X_INTRODUCED_380_,X_INTRODUCED_381_],true);
constraint float_sqrt(X_INTRODUCED_378_,X_INTRODUCED_377_);
constraint bool_clause([X_INTRODUCED_131_],[X_INTRODUCED_14_]);
constraint bool_clause([X_INTRODUCED_133_],[X_INTRODUCED_14_]);
constraint bool_clause([X_INTRODUCED_135_],[X_INTRODUCED_14_]);
constraint bool_clause([X_INTRODUCED_137_],[X_INTRODUCED_14_]);
constraint bool_clause([X_INTRODUCED_158_],[X_INTRODUCED_14_]);
constraint bool_clause([X_INTRODUCED_160_],[X_INTRODUCED_14_]);
constraint bool_clause([X_INTRODUCED_164_],[X_INTRODUCED_14_]);
constraint bool_clause([X_INTRODUCED_165_],[X_INTRODUCED_14_]);
constraint bool_clause([X_INTRODUCED_181_],[X_INTRODUCED_29_]);
constraint bool_clause([X_INTRODUCED_183_],[X_INTRODUCED_29_]);
constraint bool_clause([X_INTRODUCED_185_],[X_INTRODUCED_29_]);
constraint bool_clause([X_INTRODUCED_187_],[X_INTRODUCED_29_]);
constraint bool_clause([X_INTRODUCED_207_],[X_INTRODUCED_29_]);
constraint bool_clause([X_INTRODUCED_209_],[X_INTRODUCED_29_]);
constraint bool_clause([X_INTRODUCED_213_],[X_INTRODUCED_29_]);
constraint bool_clause([X_INTRODUCED_214_],[X_INTRODUCED_29_]);
constraint bool_clause([X_INTRODUCED_230_],[X_INTRODUCED_44_]);
constraint bool_clause([X_INTRODUCED_232_],[X_INTRODUCED_44_]);
constraint bool_clause([X_INTRODUCED_234_],[X_INTRODUCED_44_]);
constraint bool_clause([X_INTRODUCED_236_],[X_INTRODUCED_44_]);
constraint bool_clause([X_INTRODUCED_256_],[X_INTRODUCED_44_]);
constraint bool_clause([X_INTRODUCED_258_],[X_INTRODUCED_44_]);
constraint bool_clause([X_INTRODUCED_262_],[X_INTRODUCED_44_]);
constraint bool_clause([X_INTRODUCED_263_],[X_INTRODUCED_44_]);
constraint int_lin_eq([-1,1,-1],[X_INTRODUCED_49_,X_INTRODUCED_48_,X_INTRODUCED_50_],-1):: defines_var(X_INTRODUCED_50_);
constraint int_lin_eq([-1,1,-1],[X_INTRODUCED_53_,X_INTRODUCED_52_,X_INTRODUCED_54_],-1):: defines_var(X_INTRODUCED_54_);
constraint int_lin_eq([-1,1,-1],[X_INTRODUCED_57_,X_INTRODUCED_56_,X_INTRODUCED_58_],-1):: defines_var(X_INTRODUCED_58_);
constraint int_lin_eq([-1,1,-1],[X_INTRODUCED_61_,X_INTRODUCED_60_,X_INTRODUCED_62_],-1):: defines_var(X_INTRODUCED_62_);
constraint int_lin_eq([-1,1,-1],[X_INTRODUCED_65_,X_INTRODUCED_64_,X_INTRODUCED_66_],-1):: defines_var(X_INTRODUCED_66_);
constraint int_lin_eq([-1,1,-1],[X_INTRODUCED_69_,X_INTRODUCED_68_,X_INTRODUCED_70_],-1):: defines_var(X_INTRODUCED_70_);
constraint int_lin_eq([-1,1,-1],[X_INTRODUCED_73_,X_INTRODUCED_72_,X_INTRODUCED_74_],-1):: defines_var(X_INTRODUCED_74_);
constraint int_lin_eq([-1,1,-1],[X_INTRODUCED_77_,X_INTRODUCED_76_,X_INTRODUCED_78_],-1):: defines_var(X_INTRODUCED_78_);
constraint int_lin_eq([-1,1,-1],[X_INTRODUCED_81_,X_INTRODUCED_80_,X_INTRODUCED_82_],-1):: defines_var(X_INTRODUCED_82_);
constraint int_lin_eq([-1,1,-1],[X_INTRODUCED_85_,X_INTRODUCED_84_,X_INTRODUCED_86_],-1):: defines_var(X_INTRODUCED_86_);
constraint int_lin_eq([-1,1,-1],[X_INTRODUCED_89_,X_INTRODUCED_88_,X_INTRODUCED_90_],-1):: defines_var(X_INTRODUCED_90_);
constraint int_lin_eq([-1,1,-1],[X_INTRODUCED_93_,X_INTRODUCED_92_,X_INTRODUCED_94_],-1):: defines_var(X_INTRODUCED_94_);
constraint int_lin_eq([-1,1,-1],[X_INTRODUCED_97_,X_INTRODUCED_96_,X_INTRODUCED_98_],-1):: defines_var(X_INTRODUCED_98_);
constraint int_lin_eq([-1,1,-1],[X_INTRODUCED_101_,X_INTRODUCED_100_,X_INTRODUCED_102_],-1):: defines_var(X_INTRODUCED_102_);
constraint int_lin_eq([-1,1,-1],[X_INTRODUCED_105_,X_INTRODUCED_104_,X_INTRODUCED_106_],-1):: defines_var(X_INTRODUCED_106_);
constraint int_lin_eq([-1,1,-1],[X_INTRODUCED_109_,X_INTRODUCED_108_,X_INTRODUCED_110_],-1):: defines_var(X_INTRODUCED_110_);
constraint int_lin_eq([-1,1,-1],[X_INTRODUCED_113_,X_INTRODUCED_112_,X_INTRODUCED_114_],-1):: defines_var(X_INTRODUCED_114_);
constraint int_lin_eq([-1,1,-1],[X_INTRODUCED_117_,X_INTRODUCED_116_,X_INTRODUCED_118_],-1):: defines_var(X_INTRODUCED_118_);
constraint float_lin_eq([1.0,1.0,-1.0],[X_INTRODUCED_323_,X_INTRODUCED_377_,obj],-0.0):: defines_var(obj);
constraint int_lin_eq_reif(X_INTRODUCED_124_,[X_INTRODUCED_1_,X_INTRODUCED_0_],245,X_INTRODUCED_131_):: defines_var(X_INTRODUCED_131_);
constraint int_lin_eq_reif(X_INTRODUCED_124_,[X_INTRODUCED_2_,X_INTRODUCED_0_],122,X_INTRODUCED_133_):: defines_var(X_INTRODUCED_133_);
constraint int_lin_eq_reif(X_INTRODUCED_124_,[X_INTRODUCED_3_,X_INTRODUCED_1_],-122,X_INTRODUCED_135_):: defines_var(X_INTRODUCED_135_);
constraint int_lin_eq_reif([1],[X_INTRODUCED_0_],1487,X_INTRODUCED_137_):: defines_var(X_INTRODUCED_137_);
constraint int_lin_eq_reif(X_INTRODUCED_124_,[X_INTRODUCED_0_,X_INTRODUCED_1_],-245,X_INTRODUCED_140_):: defines_var(X_INTRODUCED_140_);
constraint int_lin_eq_reif([1],[X_INTRODUCED_1_],2608,X_INTRODUCED_142_):: defines_var(X_INTRODUCED_142_);
constraint array_bool_and([X_INTRODUCED_133_,X_INTRODUCED_135_,X_INTRODUCED_140_,X_INTRODUCED_142_],X_INTRODUCED_143_):: defines_var(X_INTRODUCED_143_);
constraint int_lin_eq_reif(X_INTRODUCED_124_,[X_INTRODUCED_5_,X_INTRODUCED_4_],875,X_INTRODUCED_156_):: defines_var(X_INTRODUCED_156_);
constraint int_lin_eq_reif(X_INTRODUCED_124_,[X_INTRODUCED_6_,X_INTRODUCED_4_],437,X_INTRODUCED_158_):: defines_var(X_INTRODUCED_158_);
constraint int_lin_eq_reif(X_INTRODUCED_124_,[X_INTRODUCED_7_,X_INTRODUCED_5_],-437,X_INTRODUCED_160_):: defines_var(X_INTRODUCED_160_);
constraint int_lin_eq_reif([1],[X_INTRODUCED_4_],1487,X_INTRODUCED_161_):: defines_var(X_INTRODUCED_161_);
constraint array_bool_and([X_INTRODUCED_156_,X_INTRODUCED_158_,X_INTRODUCED_160_,X_INTRODUCED_161_],X_INTRODUCED_162_):: defines_var(X_INTRODUCED_162_);
constraint int_lin_eq_reif(X_INTRODUCED_124_,[X_INTRODUCED_4_,X_INTRODUCED_5_],-875,X_INTRODUCED_164_):: defines_var(X_INTRODUCED_164_);
constraint int_lin_eq_reif([1],[X_INTRODUCED_5_],2608,X_INTRODUCED_165_):: defines_var(X_INTRODUCED_165_);
constraint int_lin_eq_reif(X_INTRODUCED_124_,[X_INTRODUCED_16_,X_INTRODUCED_15_],343,X_INTRODUCED_181_):: defines_var(X_INTRODUCED_181_);
constraint int_lin_eq_reif(X_INTRODUCED_124_,[X_INTRODUCED_17_,X_INTRODUCED_15_],171,X_INTRODUCED_183_):: defines_var(X_INTRODUCED_183_);
constraint int_lin_eq_reif(X_INTRODUCED_124_,[X_INTRODUCED_18_,X_INTRODUCED_16_],-171,X_INTRODUCED_185_):: defines_var(X_INTRODUCED_185_);
constraint int_lin_eq_reif([1],[X_INTRODUCED_15_],1574,X_INTRODUCED_187_):: defines_var(X_INTRODUCED_187_);
constraint int_lin_eq_reif(X_INTRODUCED_124_,[X_INTRODUCED_15_,X_INTRODUCED_16_],-343,X_INTRODUCED_190_):: defines_var(X_INTRODUCED_190_);
constraint int_lin_eq_reif([1],[X_INTRODUCED_16_],2521,X_INTRODUCED_192_):: defines_var(X_INTRODUCED_192_);
constraint array_bool_and([X_INTRODUCED_183_,X_INTRODUCED_185_,X_INTRODUCED_190_,X_INTRODUCED_192_],X_INTRODUCED_193_):: defines_var(X_INTRODUCED_193_);
constraint int_lin_eq_reif(X_INTRODUCED_124_,[X_INTRODUCED_20_,X_INTRODUCED_19_],603,X_INTRODUCED_205_):: defines_var(X_INTRODUCED_205_);
constraint int_lin_eq_reif(X_INTRODUCED_124_,[X_INTRODUCED_21_,X_INTRODUCED_19_],301,X_INTRODUCED_207_):: defines_var(X_INTRODUCED_207_);
constraint int_lin_eq_reif(X_INTRODUCED_124_,[X_INTRODUCED_22_,X_INTRODUCED_20_],-301,X_INTRODUCED_209_):: defines_var(X_INTRODUCED_209_);
constraint int_lin_eq_reif([1],[X_INTRODUCED_19_],1574,X_INTRODUCED_210_):: defines_var(X_INTRODUCED_210_);
constraint array_bool_and([X_INTRODUCED_205_,X_INTRODUCED_207_,X_INTRODUCED_209_,X_INTRODUCED_210_],X_INTRODUCED_211_):: defines_var(X_INTRODUCED_211_);
constraint int_lin_eq_reif(X_INTRODUCED_124_,[X_INTRODUCED_19_,X_INTRODUCED_20_],-603,X_INTRODUCED_213_):: defines_var(X_INTRODUCED_213_);
constraint int_lin_eq_reif([1],[X_INTRODUCED_20_],2521,X_INTRODUCED_214_):: defines_var(X_INTRODUCED_214_);
constraint int_lin_eq_reif(X_INTRODUCED_124_,[X_INTRODUCED_31_,X_INTRODUCED_30_],343,X_INTRODUCED_230_):: defines_var(X_INTRODUCED_230_);
constraint int_lin_eq_reif(X_INTRODUCED_124_,[X_INTRODUCED_32_,X_INTRODUCED_30_],171,X_INTRODUCED_232_):: defines_var(X_INTRODUCED_232_);
constraint int_lin_eq_reif(X_INTRODUCED_124_,[X_INTRODUCED_33_,X_INTRODUCED_31_],-171,X_INTRODUCED_234_):: defines_var(X_INTRODUCED_234_);
constraint int_lin_eq_reif([1],[X_INTRODUCED_30_],1574,X_INTRODUCED_236_):: defines_var(X_INTRODUCED_236_);
constraint int_lin_eq_reif(X_INTRODUCED_124_,[X_INTRODUCED_30_,X_INTRODUCED_31_],-343,X_INTRODUCED_239_):: defines_var(X_INTRODUCED_239_);
constraint int_lin_eq_reif([1],[X_INTRODUCED_31_],2521,X_INTRODUCED_241_):: defines_var(X_INTRODUCED_241_);
constraint array_bool_and([X_INTRODUCED_232_,X_INTRODUCED_234_,X_INTRODUCED_239_,X_INTRODUCED_241_],X_INTRODUCED_242_):: defines_var(X_INTRODUCED_242_);
constraint int_lin_eq_reif(X_INTRODUCED_124_,[X_INTRODUCED_35_,X_INTRODUCED_34_],603,X_INTRODUCED_254_):: defines_var(X_INTRODUCED_254_);
constraint int_lin_eq_reif(X_INTRODUCED_124_,[X_INTRODUCED_36_,X_INTRODUCED_34_],301,X_INTRODUCED_256_):: defines_var(X_INTRODUCED_256_);
constraint int_lin_eq_reif(X_INTRODUCED_124_,[X_INTRODUCED_37_,X_INTRODUCED_35_],-301,X_INTRODUCED_258_):: defines_var(X_INTRODUCED_258_);
constraint int_lin_eq_reif([1],[X_INTRODUCED_34_],1574,X_INTRODUCED_259_):: defines_var(X_INTRODUCED_259_);
constraint array_bool_and([X_INTRODUCED_254_,X_INTRODUCED_256_,X_INTRODUCED_258_,X_INTRODUCED_259_],X_INTRODUCED_260_):: defines_var(X_INTRODUCED_260_);
constraint int_lin_eq_reif(X_INTRODUCED_124_,[X_INTRODUCED_34_,X_INTRODUCED_35_],-603,X_INTRODUCED_262_):: defines_var(X_INTRODUCED_262_);
constraint int_lin_eq_reif([1],[X_INTRODUCED_35_],2521,X_INTRODUCED_263_):: defines_var(X_INTRODUCED_263_);
constraint int2float(X_INTRODUCED_51_,X_INTRODUCED_278_):: defines_var(X_INTRODUCED_278_);
constraint float_lin_eq([-0.000244140625,-1.0],[X_INTRODUCED_278_,X_INTRODUCED_279_],-0.06005859375):: defines_var(X_INTRODUCED_279_);
constraint float_times(X_INTRODUCED_279_,X_INTRODUCED_279_,X_INTRODUCED_280_):: defines_var(X_INTRODUCED_280_);
constraint int2float(X_INTRODUCED_55_,X_INTRODUCED_283_):: defines_var(X_INTRODUCED_283_);
constraint float_lin_eq([-0.000244140625,-1.0],[X_INTRODUCED_283_,X_INTRODUCED_284_],-0.0):: defines_var(X_INTRODUCED_284_);
constraint float_times(X_INTRODUCED_284_,X_INTRODUCED_284_,X_INTRODUCED_285_):: defines_var(X_INTRODUCED_285_);
constraint int2float(X_INTRODUCED_59_,X_INTRODUCED_288_):: defines_var(X_INTRODUCED_288_);
constraint float_lin_eq([-0.000244140625,-1.0],[X_INTRODUCED_288_,X_INTRODUCED_289_],-0.06005859375):: defines_var(X_INTRODUCED_289_);
constraint float_times(X_INTRODUCED_289_,X_INTRODUCED_289_,X_INTRODUCED_290_):: defines_var(X_INTRODUCED_290_);
constraint int2float(X_INTRODUCED_63_,X_INTRODUCED_293_):: defines_var(X_INTRODUCED_293_);
constraint float_lin_eq([-0.000244140625,-1.0],[X_INTRODUCED_293_,X_INTRODUCED_294_],-0.0009765625):: defines_var(X_INTRODUCED_294_);
constraint float_times(X_INTRODUCED_294_,X_INTRODUCED_294_,X_INTRODUCED_295_):: defines_var(X_INTRODUCED_295_);
constraint int2float(X_INTRODUCED_67_,X_INTRODUCED_298_):: defines_var(X_INTRODUCED_298_);
constraint float_lin_eq([-0.000244140625,-1.0],[X_INTRODUCED_298_,X_INTRODUCED_299_],-0.1474609375):: defines_var(X_INTRODUCED_299_);
constraint float_times(X_INTRODUCED_299_,X_INTRODUCED_299_,X_INTRODUCED_300_):: defines_var(X_INTRODUCED_300_);
constraint int2float(X_INTRODUCED_71_,X_INTRODUCED_303_):: defines_var(X_INTRODUCED_303_);
constraint float_lin_eq([-0.000244140625,-1.0],[X_INTRODUCED_303_,X_INTRODUCED_304_],-0.2138671875):: defines_var(X_INTRODUCED_304_);
constraint float_times(X_INTRODUCED_304_,X_INTRODUCED_304_,X_INTRODUCED_305_):: defines_var(X_INTRODUCED_305_);
constraint int2float(X_INTRODUCED_75_,X_INTRODUCED_308_):: defines_var(X_INTRODUCED_308_);
constraint float_lin_eq([-0.000244140625,-1.0],[X_INTRODUCED_308_,X_INTRODUCED_309_],-0.083984375):: defines_var(X_INTRODUCED_309_);
constraint float_times(X_INTRODUCED_309_,X_INTRODUCED_309_,X_INTRODUCED_310_):: defines_var(X_INTRODUCED_310_);
constraint int2float(X_INTRODUCED_79_,X_INTRODUCED_313_):: defines_var(X_INTRODUCED_313_);
constraint float_lin_eq([-0.000244140625,-1.0],[X_INTRODUCED_313_,X_INTRODUCED_314_],-0.1474609375):: defines_var(X_INTRODUCED_314_);
constraint float_times(X_INTRODUCED_314_,X_INTRODUCED_314_,X_INTRODUCED_315_):: defines_var(X_INTRODUCED_315_);
constraint int2float(X_INTRODUCED_83_,X_INTRODUCED_318_):: defines_var(X_INTRODUCED_318_);
constraint float_lin_eq([-0.000244140625,-1.0],[X_INTRODUCED_318_,X_INTRODUCED_319_],-1.0):: defines_var(X_INTRODUCED_319_);
constraint float_times(X_INTRODUCED_319_,X_INTRODUCED_319_,X_INTRODUCED_320_):: defines_var(X_INTRODUCED_320_);
constraint float_lin_eq_reif(X_INTRODUCED_326_,[X_INTRODUCED_324_,X_INTRODUCED_280_,X_INTRODUCED_285_,X_INTRODUCED_290_,X_INTRODUCED_295_,X_INTRODUCED_300_,X_INTRODUCED_305_,X_INTRODUCED_310_,X_INTRODUCED_315_,X_INTRODUCED_320_],-0.0,X_INTRODUCED_327_):: defines_var(X_INTRODUCED_327_);
constraint float_lin_lt_reif(X_INTRODUCED_328_,[X_INTRODUCED_280_,X_INTRODUCED_285_,X_INTRODUCED_290_,X_INTRODUCED_295_,X_INTRODUCED_300_,X_INTRODUCED_305_,X_INTRODUCED_310_,X_INTRODUCED_315_,X_INTRODUCED_320_],-0.0,X_INTRODUCED_329_):: defines_var(X_INTRODUCED_329_);
constraint int2float(X_INTRODUCED_87_,X_INTRODUCED_333_):: defines_var(X_INTRODUCED_333_);
constraint float_lin_eq([-0.000244140625,-1.0],[X_INTRODUCED_333_,X_INTRODUCED_334_],-0.0):: defines_var(X_INTRODUCED_334_);
constraint float_times(X_INTRODUCED_334_,X_INTRODUCED_334_,X_INTRODUCED_335_):: defines_var(X_INTRODUCED_335_);
constraint int2float(X_INTRODUCED_91_,X_INTRODUCED_338_):: defines_var(X_INTRODUCED_338_);
constraint float_lin_eq([-0.000244140625,-1.0],[X_INTRODUCED_338_,X_INTRODUCED_339_],-0.083740234375):: defines_var(X_INTRODUCED_339_);
constraint float_times(X_INTRODUCED_339_,X_INTRODUCED_339_,X_INTRODUCED_340_):: defines_var(X_INTRODUCED_340_);
constraint int2float(X_INTRODUCED_95_,X_INTRODUCED_343_):: defines_var(X_INTRODUCED_343_);
constraint float_lin_eq([-0.000244140625,-1.0],[X_INTRODUCED_343_,X_INTRODUCED_344_],-0.083984375):: defines_var(X_INTRODUCED_344_);
constraint float_times(X_INTRODUCED_344_,X_INTRODUCED_344_,X_INTRODUCED_345_):: defines_var(X_INTRODUCED_345_);
constraint int2float(X_INTRODUCED_99_,X_INTRODUCED_348_):: defines_var(X_INTRODUCED_348_);
constraint float_lin_eq([-0.000244140625,-1.0],[X_INTRODUCED_348_,X_INTRODUCED_349_],-0.083984375):: defines_var(X_INTRODUCED_349_);
constraint float_times(X_INTRODUCED_349_,X_INTRODUCED_349_,X_INTRODUCED_350_):: defines_var(X_INTRODUCED_350_);
constraint int2float(X_INTRODUCED_103_,X_INTRODUCED_353_):: defines_var(X_INTRODUCED_353_);
constraint float_lin_eq([-0.000244140625,-1.0],[X_INTRODUCED_353_,X_INTRODUCED_354_],-0.0029296875):: defines_var(X_INTRODUCED_354_);
constraint float_times(X_INTRODUCED_354_,X_INTRODUCED_354_,X_INTRODUCED_355_):: defines_var(X_INTRODUCED_355_);
constraint int2float(X_INTRODUCED_107_,X_INTRODUCED_358_):: defines_var(X_INTRODUCED_358_);
constraint float_lin_eq([-0.000244140625,-1.0],[X_INTRODUCED_358_,X_INTRODUCED_359_],-0.1474609375):: defines_var(X_INTRODUCED_359_);
constraint float_times(X_INTRODUCED_359_,X_INTRODUCED_359_,X_INTRODUCED_360_):: defines_var(X_INTRODUCED_360_);
constraint int2float(X_INTRODUCED_111_,X_INTRODUCED_363_):: defines_var(X_INTRODUCED_363_);
constraint float_lin_eq([-0.000244140625,-1.0],[X_INTRODUCED_363_,X_INTRODUCED_364_],-0.084228515625):: defines_var(X_INTRODUCED_364_);
constraint float_times(X_INTRODUCED_364_,X_INTRODUCED_364_,X_INTRODUCED_365_):: defines_var(X_INTRODUCED_365_);
constraint int2float(X_INTRODUCED_115_,X_INTRODUCED_368_):: defines_var(X_INTRODUCED_368_);
constraint float_lin_eq([-0.000244140625,-1.0],[X_INTRODUCED_368_,X_INTRODUCED_369_],-0.147216796875):: defines_var(X_INTRODUCED_369_);
constraint float_times(X_INTRODUCED_369_,X_INTRODUCED_369_,X_INTRODUCED_370_):: defines_var(X_INTRODUCED_370_);
constraint int2float(X_INTRODUCED_119_,X_INTRODUCED_373_):: defines_var(X_INTRODUCED_373_);
constraint float_lin_eq([-0.000244140625,-1.0],[X_INTRODUCED_373_,X_INTRODUCED_374_],-1.0):: defines_var(X_INTRODUCED_374_);
constraint float_times(X_INTRODUCED_374_,X_INTRODUCED_374_,X_INTRODUCED_375_):: defines_var(X_INTRODUCED_375_);
constraint float_lin_eq_reif(X_INTRODUCED_326_,[X_INTRODUCED_378_,X_INTRODUCED_335_,X_INTRODUCED_340_,X_INTRODUCED_345_,X_INTRODUCED_350_,X_INTRODUCED_355_,X_INTRODUCED_360_,X_INTRODUCED_365_,X_INTRODUCED_370_,X_INTRODUCED_375_],-0.0,X_INTRODUCED_380_):: defines_var(X_INTRODUCED_380_);
constraint float_lin_lt_reif(X_INTRODUCED_328_,[X_INTRODUCED_335_,X_INTRODUCED_340_,X_INTRODUCED_345_,X_INTRODUCED_350_,X_INTRODUCED_355_,X_INTRODUCED_360_,X_INTRODUCED_365_,X_INTRODUCED_370_,X_INTRODUCED_375_],-0.0,X_INTRODUCED_381_):: defines_var(X_INTRODUCED_381_);
solve  minimize obj;
